NAME : single
TYPE : ATSP
DIMENSION : 13
EDGE_WEIGHT_TYPE : EXPLICIT
EDGE_WEIGHT_FORMAT : FULL_MATRIX
EDGE_WEIGHT_SECTION
0 1300 900 50300 1000 50300 50300 50300 900 400 200 100 100 
0 0 300 300 200 300 200 300 300 700 900 800 900 
0 300 0 100 100 200 100 200 100 50000 600 50000 50000 
0 300 200 0 0 0 200 100 200 600 800 700 800 
0 200 100 200 0 100 100 200 100 500 50000 700 700 
0 300 200 200 100 0 0 100 200 50000 50000 50000 50000 
0 200 100 100 100 100 0 0 200 600 800 700 800 
0 300 200 0 200 200 200 0 100 50000 50000 600 50000 
0 300 100 200 100 200 200 100 0 400 600 500 600 
0 700 50000 600 500 50000 600 50000 400 0 200 200 300 
0 900 600 800 50000 50000 800 50000 600 200 0 100 100 
0 800 50000 700 700 50000 700 600 500 200 200 0 100 
0 900 50000 800 700 50000 800 50000 600 300 100 100 0 
